(declare-const x sl.list.loc)
(declare-const y sl.list.loc)
(declare-const z sl.list.loc)
(declare-const w sl.list.loc)
(declare-const d Int)
(declare-const e Int)
(declare-const f Int)
(declare-const g Int)
(assert (and (sl.list x)
             (sl.sepcon (sl.sepcon (sl.list.dpointsto x y d)
                              (sl.list.dpointsto y z e))
                   (sl.sepcon (sl.list.dpointsto z w f)
                              (sl.list.dpointsto w sl.list.null g)))))
